; Copyright (c) 2026 The RIINA Authors. All rights reserved.
; Copyright (c) 2026 The RIINA Authors.
; Auto-generated from 02_FORMAL/coq/domains/SupplyChainSecurity.v (37 assertions)
; Generated by scripts/generate-full-stack.py
; Module: SupplyChainSecurity

(set-logic ALL)
(set-option :produce-models true)

; SignedArtifact (matches Coq: Record SignedArtifact)
(declare-datatypes ((SignedArtifact 0))
  (((mk-signed_artifact (sa_content_hash Hash) (sa_signature Signature) (sa_signer_key KeyId) (sa_verified Bool)))))

; VerifiedPackage (matches Coq: Record VerifiedPackage)
(declare-datatypes ((VerifiedPackage 0))
  (((mk-verified_package (vp_name PackageName) (vp_canonical_name PackageName) (vp_in_allowlist Bool) (vp_name_verified Bool)))))

; ScopedPackage (matches Coq: Record ScopedPackage)
(declare-datatypes ((ScopedPackage 0))
  (((mk-scoped_package (sp_namespace Namespace) (sp_name PackageName) (sp_internal_registry Bool) (sp_namespace_verified Bool)))))

; ReproducibleBuild (matches Coq: Record ReproducibleBuild)
(declare-datatypes ((ReproducibleBuild 0))
  (((mk-reproducible_build (rb_source_hash Hash) (rb_output_hash Hash) (rb_builder1_hash Hash) (rb_builder2_hash Hash) (rb_hashes_match Bool)))))

; TUFPackage (matches Coq: Record TUFPackage)
(declare-datatypes ((TUFPackage 0))
  (((mk-tuf_package (tuf_root_signed Bool) (tuf_targets_signed Bool) (tuf_snapshot_signed Bool) (tuf_timestamp_signed Bool) (tuf_threshold_met Bool)))))

; VerifiedFirmware (matches Coq: Record VerifiedFirmware)
(declare-datatypes ((VerifiedFirmware 0))
  (((mk-verified_firmware (fw_signature Signature) (fw_vendor_key KeyId) (fw_hash Hash) (fw_signature_valid Bool) (fw_rollback_protected Bool)))))

; HardwareAttestation (matches Coq: Record HardwareAttestation)
(declare-datatypes ((HardwareAttestation 0))
  (((mk-hardware_attestation (hw_tpm_present Bool) (hw_secure_boot Bool) (hw_attestation_chain list) (hw_chain_valid Bool)))))

; VendorVerification (matches Coq: Record VendorVerification)
(declare-datatypes ((VendorVerification 0))
  (((mk-vendor_verification (vendor_id Int) (vendor_cert_valid Bool) (vendor_audit_passed Bool) (vendor_in_approved_list Bool)))))

; NetworkSegmentation (matches Coq: Record NetworkSegmentation)
(declare-datatypes ((NetworkSegmentation 0))
  (((mk-network_segmentation (ns_source_segment NetworkSegment) (ns_dest_segment NetworkSegment) (ns_firewall_rules list) (ns_segments_isolated Bool)))))

; SignedUpdate (matches Coq: Record SignedUpdate)
(declare-datatypes ((SignedUpdate 0))
  (((mk-signed_update (upd_signature_valid Bool) (upd_current_version Version) (upd_new_version Version) (upd_version_incremented Bool)))))

; SignedCode (matches Coq: Record SignedCode)
(declare-datatypes ((SignedCode 0))
  (((mk-signed_code (code_signature_valid Bool) (code_review_approved Bool) (code_reviewer_count Int) (code_min_reviewers Int)))))

; DDCBuild (matches Coq: Record DDCBuild)
(declare-datatypes ((DDCBuild 0))
  (((mk-ddc_build (ddc_compiler1_hash Hash) (ddc_compiler2_hash Hash) (ddc_compilers_different Bool) (ddc_output1_hash Hash) (ddc_output2_hash Hash) (ddc_outputs_match Bool)))))

; BinaryVerification (matches Coq: Record BinaryVerification)
(declare-datatypes ((BinaryVerification 0))
  (((mk-binary_verification (bin_source_hash Hash) (bin_claimed_hash Hash) (bin_reproduced_hash Hash) (bin_reproducible Bool)))))

; CertificateTransparency (matches Coq: Record CertificateTransparency)
(declare-datatypes ((CertificateTransparency 0))
  (((mk-certificate_transparency (ct_cert_id CertificateId) (ct_in_log Bool) (ct_sct_valid Bool) (ct_log_consistent Bool)))))

; AccessControl (matches Coq: Record AccessControl)
(declare-datatypes ((AccessControl 0))
  (((mk-access_control (ac_user_id UserId) (ac_mfa_enabled Bool) (ac_role_verified Bool) (ac_access_logged Bool)))))

; DependencyIsolation (matches Coq: Record DependencyIsolation)
(declare-datatypes ((DependencyIsolation 0))
  (((mk-dependency_isolation (di_dependency_id Int) (di_isolation_level IsolationLevel) (di_sandboxed Bool) (di_network_restricted Bool) (di_filesystem_restricted Bool)))))

; version_gt (matches Coq: Definition version_gt)
(define-fun version_gt () Bool true)

; meets_reviewer_threshold (matches Coq: Definition meets_reviewer_threshold)
(define-fun meets_reviewer_threshold () Bool true)

; isolation_sufficient (matches Coq: Definition isolation_sufficient)
(define-fun isolation_sufficient ((level IsolationLevel)) Bool
  true)

; FullSupplyChainSecurity (matches Coq: Definition FullSupplyChainSecurity)
(define-fun FullSupplyChainSecurity () Prop true)

; hash_eq_refl (matches Coq: Lemma hash_eq_refl)
(assert (forall ((h Hash)) (= (hash_eq h h) true))) ; hash_eq_refl

; hash_eq_sym (matches Coq: Lemma hash_eq_sym)
(assert (= true true)) ; hash_eq_sym [untranslatable]

; hash_eq_implies_eq (matches Coq: Lemma hash_eq_implies_eq)
(assert (= true true)) ; hash_eq_implies_eq [untranslatable]

; bool_impl (matches Coq: Lemma bool_impl)
(assert (= true true)) ; bool_impl [untranslatable]

; sup_001_dependency_compromise_mitigated (matches Coq: Theorem sup_001_dependency_compromise_mitigated)
(assert (= true true)) ; sup_001_dependency_compromise_mitigated [untranslatable]

; sup_001_hash_signature_integrity (matches Coq: Theorem sup_001_hash_signature_integrity)
(assert (= true true)) ; sup_001_hash_signature_integrity [untranslatable]

; sup_002_typosquatting_mitigated (matches Coq: Theorem sup_002_typosquatting_mitigated)
(assert (= true true)) ; sup_002_typosquatting_mitigated [untranslatable]

; sup_002_name_verification_canonical (matches Coq: Theorem sup_002_name_verification_canonical)
(assert (= true true)) ; sup_002_name_verification_canonical [untranslatable]

; sup_003_dependency_confusion_mitigated (matches Coq: Theorem sup_003_dependency_confusion_mitigated)
(assert (= true true)) ; sup_003_dependency_confusion_mitigated [untranslatable]

; sup_003_internal_registry_isolation (matches Coq: Theorem sup_003_internal_registry_isolation)
(assert (= true true)) ; sup_003_internal_registry_isolation [untranslatable]

; sup_004_build_compromise_mitigated (matches Coq: Theorem sup_004_build_compromise_mitigated)
(assert (= true true)) ; sup_004_build_compromise_mitigated [untranslatable]

; sup_004_reproducible_detection (matches Coq: Theorem sup_004_reproducible_detection)
(assert (= true true)) ; sup_004_reproducible_detection [untranslatable]

; sup_005_package_manager_mitigated (matches Coq: Theorem sup_005_package_manager_mitigated)
(assert (= true true)) ; sup_005_package_manager_mitigated [untranslatable]

; sup_005_tuf_threshold_security (matches Coq: Theorem sup_005_tuf_threshold_security)
(assert (= true true)) ; sup_005_tuf_threshold_security [untranslatable]

; sup_006_firmware_mitigated (matches Coq: Theorem sup_006_firmware_mitigated)
(assert (= true true)) ; sup_006_firmware_mitigated [untranslatable]

; sup_006_firmware_integrity (matches Coq: Theorem sup_006_firmware_integrity)
(assert (= true true)) ; sup_006_firmware_integrity [untranslatable]

; sup_007_hardware_mitigated (matches Coq: Theorem sup_007_hardware_mitigated)
(assert (= true true)) ; sup_007_hardware_mitigated [untranslatable]

; sup_007_attestation_chain_security (matches Coq: Theorem sup_007_attestation_chain_security)
(assert (= true true)) ; sup_007_attestation_chain_security [untranslatable]

; sup_008_third_party_mitigated (matches Coq: Theorem sup_008_third_party_mitigated)
(assert (= true true)) ; sup_008_third_party_mitigated [untranslatable]

; sup_008_vendor_audit_security (matches Coq: Theorem sup_008_vendor_audit_security)
(assert (= true true)) ; sup_008_vendor_audit_security [untranslatable]

; sup_009_watering_hole_mitigated (matches Coq: Theorem sup_009_watering_hole_mitigated)
(assert (= true true)) ; sup_009_watering_hole_mitigated [untranslatable]

; sup_009_segment_isolation_lateral (matches Coq: Theorem sup_009_segment_isolation_lateral)
(assert (= true true)) ; sup_009_segment_isolation_lateral [untranslatable]

; sup_010_update_attack_mitigated (matches Coq: Theorem sup_010_update_attack_mitigated)
(assert (= true true)) ; sup_010_update_attack_mitigated [untranslatable]

; sup_010_version_rollback_prevention (matches Coq: Theorem sup_010_version_rollback_prevention)
(assert (= true true)) ; sup_010_version_rollback_prevention [untranslatable]

; sup_011_source_compromise_mitigated (matches Coq: Theorem sup_011_source_compromise_mitigated)
(assert (= true true)) ; sup_011_source_compromise_mitigated [untranslatable]

; sup_011_multi_reviewer_security (matches Coq: Theorem sup_011_multi_reviewer_security)
(assert (= true true)) ; sup_011_multi_reviewer_security [untranslatable]

; sup_012_compiler_attack_mitigated (matches Coq: Theorem sup_012_compiler_attack_mitigated)
(assert (= true true)) ; sup_012_compiler_attack_mitigated [untranslatable]

; sup_012_ddc_output_verification (matches Coq: Theorem sup_012_ddc_output_verification)
(assert (= true true)) ; sup_012_ddc_output_verification [untranslatable]

; sup_013_binary_backdoor_mitigated (matches Coq: Theorem sup_013_binary_backdoor_mitigated)
(assert (= true true)) ; sup_013_binary_backdoor_mitigated [untranslatable]

; sup_013_binary_hash_verification (matches Coq: Theorem sup_013_binary_hash_verification)
(assert (= true true)) ; sup_013_binary_hash_verification [untranslatable]

; sup_014_certificate_compromise_mitigated (matches Coq: Theorem sup_014_certificate_compromise_mitigated)
(assert (= true true)) ; sup_014_certificate_compromise_mitigated [untranslatable]

; sup_014_ct_log_verification (matches Coq: Theorem sup_014_ct_log_verification)
(assert (= true true)) ; sup_014_ct_log_verification [untranslatable]

; sup_015_developer_compromise_mitigated (matches Coq: Theorem sup_015_developer_compromise_mitigated)
(assert (= true true)) ; sup_015_developer_compromise_mitigated [untranslatable]

; sup_015_mfa_security (matches Coq: Theorem sup_015_mfa_security)
(assert (= true true)) ; sup_015_mfa_security [untranslatable]

; sup_016_malware_mitigated (matches Coq: Theorem sup_016_malware_mitigated)
(assert (= true true)) ; sup_016_malware_mitigated [untranslatable]

; sup_016_isolation_level_security (matches Coq: Theorem sup_016_isolation_level_security)
(assert (= true true)) ; sup_016_isolation_level_security [untranslatable]

; supply_chain_full_security (matches Coq: Theorem supply_chain_full_security)
(assert (= true true)) ; supply_chain_full_security [untranslatable]

; Verify all assertions are satisfiable
(check-sat)
(exit)
